*SENSE:Minimize
NAME          MODEL
ROWS
 N  OBJ
 G  C0000000
 G  C0000001
 G  C0000002
 G  C0000003
 G  C0000004
 G  C0000005
 G  C0000006
 G  C0000007
 G  C0000008
 G  C0000009
 G  C0000010
 G  C0000011
 G  C0000012
 G  C0000013
COLUMNS
    X0000000  C0000001   1.00000e+00
    X0000000  C0000000   1.00000e+00
    X0000001  C0000003   1.00000e+00
    X0000001  C0000002   1.00000e+00
    X0000002  C0000005   1.00000e+00
    X0000002  C0000004   1.00000e+00
    X0000003  C0000007   1.00000e+00
    X0000003  C0000006   1.00000e+00
    X0000004  C0000009   1.00000e+00
    X0000004  C0000008   1.00000e+00
    X0000005  C0000010   1.00000e+00
    X0000005  C0000011   1.00000e+00
    X0000006  C0000012   1.00000e+00
    X0000006  C0000013   1.00000e+00
    MARK      'MARKER'                 'INTORG'
    X0000007  C0000012  -1.00000e+01
    X0000007  C0000013   1.00000e+01
    X0000007  C0000010  -8.00000e+00
    X0000007  C0000011   8.00000e+00
    X0000007  C0000009   7.00000e+00
    X0000007  C0000008  -7.00000e+00
    X0000007  C0000001   1.00000e+00
    X0000007  C0000000  -1.00000e+00
    X0000007  C0000003   2.00000e+00
    X0000007  C0000002  -2.00000e+00
    X0000007  C0000005   3.00000e+00
    X0000007  C0000004  -3.00000e+00
    X0000007  C0000007   5.00000e+00
    X0000007  C0000006  -5.00000e+00
    X0000007  OBJ        1.00000e+00
    MARK      'MARKER'                 'INTEND'
    MARK      'MARKER'                 'INTORG'
    X0000008  C0000012  -1.90000e+01
    X0000008  C0000013   1.90000e+01
    X0000008  C0000010  -1.50000e+01
    X0000008  C0000011   1.50000e+01
    X0000008  C0000009   1.40000e+01
    X0000008  C0000008  -1.40000e+01
    X0000008  C0000001   3.00000e+00
    X0000008  C0000000  -3.00000e+00
    X0000008  C0000003   5.00000e+00
    X0000008  C0000002  -5.00000e+00
    X0000008  C0000005   7.00000e+00
    X0000008  C0000004  -7.00000e+00
    X0000008  C0000007   1.10000e+01
    X0000008  C0000006  -1.10000e+01
    MARK      'MARKER'                 'INTEND'
    MARK      'MARKER'                 'INTORG'
    X0000009  C0000012   1.00000e+00
    X0000009  C0000013  -1.00000e+00
    X0000009  C0000010   1.00000e+00
    X0000009  C0000011  -1.00000e+00
    X0000009  C0000009  -1.00000e+00
    X0000009  C0000008   1.00000e+00
    X0000009  C0000001  -1.00000e+00
    X0000009  C0000000   1.00000e+00
    X0000009  C0000003  -1.00000e+00
    X0000009  C0000002   1.00000e+00
    X0000009  C0000005  -1.00000e+00
    X0000009  C0000004   1.00000e+00
    X0000009  C0000007  -1.00000e+00
    X0000009  C0000006   1.00000e+00
    MARK      'MARKER'                 'INTEND'
RHS
    RHS       C0000000   0.00000e+00
    RHS       C0000001   0.00000e+00
    RHS       C0000002   0.00000e+00
    RHS       C0000003   0.00000e+00
    RHS       C0000004   0.00000e+00
    RHS       C0000005   0.00000e+00
    RHS       C0000006   0.00000e+00
    RHS       C0000007   0.00000e+00
    RHS       C0000008   0.00000e+00
    RHS       C0000009   0.00000e+00
    RHS       C0000010   0.00000e+00
    RHS       C0000011   0.00000e+00
    RHS       C0000012   0.00000e+00
    RHS       C0000013   0.00000e+00
BOUNDS
 FR BND       X0000000
 FR BND       X0000001
 FR BND       X0000002
 FR BND       X0000003
 FR BND       X0000004
 FR BND       X0000005
 FR BND       X0000006
 FR BND       X0000007
 FR BND       X0000008
 FR BND       X0000009
ENDATA
